NAME 
ROWS
 N  OBJ
 L  R0      
 L  R1      
 E  R2      
 E  R3      
 E  R4      
 E  R5      
 E  R6      
 E  R7      
 E  R8      
 E  R9      
 E  R10     
 E  R11     
 E  R12     
 E  R13     
 E  R14     
 E  R15     
 E  R16     
COLUMNS
    MARKER    'MARKER'                 'INTORG'
    I0(6)     OBJ       41
    I0(6)     R0        121
    I0(6)     R1        148
    I0(6)     R4        5
    I0(6)     R6        3
    I0(6)     R7        19
    I0(6)     R16       1
    I1(7)     OBJ       86
    I1(7)     R0        -101
    I1(7)     R1        170
    I1(7)     R2        14
    I1(7)     R3        14
    I1(7)     R4        6
    I1(7)     R6        9
    I1(7)     R16       1
    I2(7)     OBJ       -16
    I2(7)     R0        191
    I2(7)     R1        -85
    I2(7)     R3        7
    I2(7)     R5        4
    I2(7)     R6        10
    I2(7)     R7        18
    I2(7)     R16       1
    I3(7)     OBJ       180
    I3(7)     R0        -119
    I3(7)     R1        6
    I3(7)     R3        6
    I3(7)     R4        4
    I3(7)     R5        1
    I3(7)     R7        9
    I3(7)     R16       1
    I4(8)     OBJ       -74
    I4(8)     R0        107
    I4(8)     R1        -79
    I4(8)     R3        11
    I4(8)     R4        3
    I4(8)     R5        19
    I4(8)     R6        7
    I4(8)     R7        1
    I4(8)     R16       1
    I5(7)     OBJ       149
    I5(7)     R0        -176
    I5(7)     R1        -84
    I5(7)     R2        16
    I5(7)     R3        4
    I5(7)     R5        17
    I5(7)     R7        18
    I5(7)     R16       1
    MARKER    'MARKER'                 'INTEND'
    C6(14)    OBJ       -1
    C6(14)    R0        6
    C6(14)    R1        3
    C6(14)    R2        7
    C6(14)    R3        16
    C6(14)    R4        18
    C6(14)    R5        4
    C6(14)    R6        14
    C6(14)    R7        3
    C6(14)    R8        9
    C6(14)    R10       15
    C6(14)    R11       14
    C6(14)    R12       6
    C6(14)    R14       10
    C6(14)    R15       16
    C7(9)     OBJ       -4
    C7(9)     R0        8
    C7(9)     R1        1
    C7(9)     R3        7
    C7(9)     R8        11
    C7(9)     R10       10
    C7(9)     R11       8
    C7(9)     R12       14
    C7(9)     R14       4
    C7(9)     R15       15
    C8(10)    OBJ       6
    C8(10)    R0        -7
    C8(10)    R1        -6
    C8(10)    R2        5
    C8(10)    R3        9
    C8(10)    R4        6
    C8(10)    R5        5
    C8(10)    R6        3
    C8(10)    R7        9
    C8(10)    R11       17
    C8(10)    R12       7
    C9(11)    OBJ       9
    C9(11)    R0        -7
    C9(11)    R2        -1
    C9(11)    R3        -1
    C9(11)    R4        1
    C9(11)    R6        15
    C9(11)    R7        8
    C9(11)    R8        6
    C9(11)    R10       3
    C9(11)    R11       6
    C9(11)    R13       9
    C9(11)    R14       2
    C10(11)   OBJ       -10
    C10(11)   R0        -4
    C10(11)   R1        -4
    C10(11)   R2        17
    C10(11)   R3        2
    C10(11)   R6        4
    C10(11)   R8        -1
    C10(11)   R9        11
    C10(11)   R12       10
    C10(11)   R13       14
    C10(11)   R14       18
    C10(11)   R15       4
    C11(11)   OBJ       3
    C11(11)   R0        -9
    C11(11)   R1        6
    C11(11)   R3        13
    C11(11)   R4        17
    C11(11)   R5        6
    C11(11)   R7        -1
    C11(11)   R10       19
    C11(11)   R11       3
    C11(11)   R12       6
    C11(11)   R13       19
    C11(11)   R15       6
    C12(11)   OBJ       -2
    C12(11)   R0        -9
    C12(11)   R1        4
    C12(11)   R2        14
    C12(11)   R3        5
    C12(11)   R4        14
    C12(11)   R5        3
    C12(11)   R7        2
    C12(11)   R10       4
    C12(11)   R11       2
    C12(11)   R12       17
    C12(11)   R14       15
    C13(11)   OBJ       1
    C13(11)   R0        -5
    C13(11)   R1        3
    C13(11)   R2        1
    C13(11)   R3        19
    C13(11)   R4        10
    C13(11)   R5        -1
    C13(11)   R6        17
    C13(11)   R7        3
    C13(11)   R8        9
    C13(11)   R11       18
    C13(11)   R13       8
    C14(11)   OBJ       8
    C14(11)   R0        -4
    C14(11)   R1        6
    C14(11)   R3        15
    C14(11)   R5        13
    C14(11)   R7        10
    C14(11)   R8        4
    C14(11)   R11       17
    C14(11)   R12       15
    C14(11)   R13       13
    C14(11)   R14       3
    C14(11)   R15       3
    C15(1)    R2        1
    C16(1)    R3        1
    C17(1)    R4        1
    C18(1)    R5        1
    C19(1)    R6        1
    C20(1)    R7        1
    C21(1)    R8        1
    C22(1)    R9        1
    C23(1)    R10       1
    C24(1)    R11       1
    C25(1)    R12       1
    C26(1)    R13       1
    C27(1)    R14       1
    C28(1)    R15       1
    C29(1)    R16       1
RHS
    RHS1      R0        3.1807547169811323e+02
    RHS1      R1        -1.7093396226415095e+02
    RHS1      R2        51
    RHS1      R3        95
    RHS1      R4        54
    RHS1      R5        52
    RHS1      R6        55
    RHS1      R7        62
    RHS1      R8        68
    RHS1      R9        69
    RHS1      R10       69
    RHS1      R11       60
    RHS1      R12       81
    RHS1      R13       82
    RHS1      R14       64
    RHS1      R15       87
    RHS1      R16       2
BOUNDS
 UP BND1      I0(6)     1
 UP BND1      I1(7)     1
 UP BND1      I2(7)     1
 UP BND1      I3(7)     1
 UP BND1      I4(8)     1
 UP BND1      I5(7)     1
ENDATA
